c Generated map
c Size: 9 * 9, weights in range: 1 to 10, walls: False, with ratio 0.0
c dim 4 of 8
c
p sp 81 144
c graph contains 81 nodes and 144 arcs
c
a 1 10 9
a 10 1 9
a 1 2 3
a 2 1 3
a 2 11 1
a 11 2 1
a 2 3 4
a 3 2 4
a 3 12 5
a 12 3 5
a 3 4 3
a 4 3 3
a 4 13 5
a 13 4 5
a 4 5 7
a 5 4 7
a 5 14 7
a 14 5 7
a 5 6 9
a 6 5 9
a 6 15 1
a 15 6 1
a 6 7 6
a 7 6 6
a 7 16 4
a 16 7 4
a 7 8 7
a 8 7 7
a 8 17 10
a 17 8 10
a 8 9 10
a 9 8 10
a 9 18 10
a 18 9 10
a 10 19 6
a 19 10 6
a 10 11 5
a 11 10 5
a 11 20 10
a 20 11 10
a 11 12 8
a 12 11 8
a 12 21 10
a 21 12 10
a 12 13 1
a 13 12 1
a 13 22 8
a 22 13 8
a 13 14 4
a 14 13 4
a 14 23 10
a 23 14 10
a 14 15 10
a 15 14 10
a 15 24 5
a 24 15 5
a 15 16 8
a 16 15 8
a 16 25 1
a 25 16 1
a 16 17 7
a 17 16 7
a 17 26 10
a 26 17 10
a 17 18 1
a 18 17 1
a 18 27 6
a 27 18 6
a 19 28 5
a 28 19 5
a 19 20 4
a 20 19 4
a 20 29 3
a 29 20 3
a 20 21 4
a 21 20 4
a 21 30 3
a 30 21 3
a 21 22 2
a 22 21 2
a 22 31 2
a 31 22 2
a 22 23 1
a 23 22 1
a 23 32 9
a 32 23 9
a 23 24 6
a 24 23 6
a 24 33 7
a 33 24 7
a 24 25 3
a 25 24 3
a 25 34 1
a 34 25 1
a 25 26 2
a 26 25 2
a 26 35 10
a 35 26 10
a 26 27 8
a 27 26 8
a 27 36 7
a 36 27 7
a 28 37 4
a 37 28 4
a 28 29 7
a 29 28 7
a 29 38 4
a 38 29 4
a 29 30 4
a 30 29 4
a 30 39 9
a 39 30 9
a 30 31 2
a 31 30 2
a 31 40 1
a 40 31 1
a 31 32 9
a 32 31 9
a 32 41 8
a 41 32 8
a 32 33 4
a 33 32 4
a 33 42 5
a 42 33 5
a 33 34 1
a 34 33 1
a 34 43 10
a 43 34 10
a 34 35 5
a 35 34 5
a 35 44 3
a 44 35 3
a 35 36 3
a 36 35 3
a 36 45 10
a 45 36 10
a 37 46 6
a 46 37 6
a 37 38 8
a 38 37 8
a 38 47 10
a 47 38 10
a 38 39 4
a 39 38 4
a 39 48 5
a 48 39 5
a 39 40 7
a 40 39 7
a 40 49 7
a 49 40 7
a 40 41 4
a 41 40 4
a 41 50 10
a 50 41 10
a 41 42 10
a 42 41 10
a 42 51 3
a 51 42 3
a 42 43 2
a 43 42 2
a 43 52 6
a 52 43 6
a 43 44 3
a 44 43 3
a 44 53 5
a 53 44 5
a 44 45 7
a 45 44 7
a 45 54 2
a 54 45 2
a 46 55 6
a 55 46 6
a 46 47 3
a 47 46 3
a 47 56 9
a 56 47 9
a 47 48 6
a 48 47 6
a 48 57 3
a 57 48 3
a 48 49 10
a 49 48 10
a 49 58 2
a 58 49 2
a 49 50 4
a 50 49 4
a 50 59 2
a 59 50 2
a 50 51 2
a 51 50 2
a 51 60 5
a 60 51 5
a 51 52 6
a 52 51 6
a 52 61 7
a 61 52 7
a 52 53 5
a 53 52 5
a 53 62 6
a 62 53 6
a 53 54 9
a 54 53 9
a 54 63 2
a 63 54 2
a 55 64 7
a 64 55 7
a 55 56 3
a 56 55 3
a 56 65 6
a 65 56 6
a 56 57 4
a 57 56 4
a 57 66 8
a 66 57 8
a 57 58 10
a 58 57 10
a 58 67 3
a 67 58 3
a 58 59 10
a 59 58 10
a 59 68 9
a 68 59 9
a 59 60 1
a 60 59 1
a 60 69 9
a 69 60 9
a 60 61 3
a 61 60 3
a 61 70 9
a 70 61 9
a 61 62 9
a 62 61 9
a 62 71 6
a 71 62 6
a 62 63 9
a 63 62 9
a 63 72 9
a 72 63 9
a 64 73 2
a 73 64 2
a 64 65 5
a 65 64 5
a 65 74 1
a 74 65 1
a 65 66 3
a 66 65 3
a 66 75 3
a 75 66 3
a 66 67 5
a 67 66 5
a 67 76 1
a 76 67 1
a 67 68 7
a 68 67 7
a 68 77 6
a 77 68 6
a 68 69 7
a 69 68 7
a 69 78 1
a 78 69 1
a 69 70 9
a 70 69 9
a 70 79 9
a 79 70 9
a 70 71 9
a 71 70 9
a 71 80 6
a 80 71 6
a 71 72 4
a 72 71 4
a 72 81 2
a 81 72 2
a 73 74 6
a 74 73 6
a 74 75 3
a 75 74 3
a 75 76 6
a 76 75 6
a 76 77 4
a 77 76 4
a 77 78 9
a 78 77 9
a 78 79 10
a 79 78 10
a 79 80 6
a 80 79 6
a 80 81 2
a 81 80 2
